
Gurobi 7.0.1 (win64) logging started 04/03/17 13:49:33

Changed value of parameter LogFile to outputlogs\log_LPIP_prov_code_7_1491241773.log
   Prev: gurobi.log  Default: 
Optimize a model with 2212 rows, 103490 columns and 207414 nonzeros
Variable types: 0 continuous, 103490 integer (103490 binary)
Coefficient statistics:
  Matrix range     [1e+00, 7e+02]
  Objective range  [5e+01, 1e+07]
  Bounds range     [1e+00, 1e+00]
  RHS range        [1e+00, 6e+00]
Presolve removed 271 rows and 0 columns
Presolve time: 0.21s
Presolved: 1941 rows, 103490 columns, 207143 nonzeros
Variable types: 0 continuous, 103490 integer (103490 binary)
Found heuristic solution: objective 1.559041e+08

Root simplex log...

Iteration    Objective       Primal Inf.    Dual Inf.      Time
       0    0.0000000e+00   1.342000e+03   0.000000e+00     32s
    1372    1.0547575e+07   0.000000e+00   0.000000e+00     32s

Root relaxation: objective 1.054758e+07, 1372 iterations, 0.03 seconds

    Nodes    |    Current Node    |     Objective Bounds      |     Work
 Expl Unexpl |  Obj  Depth IntInf | Incumbent    BestBd   Gap | It/Node Time

     0     0 1.0548e+07    0   15 1.5590e+08 1.0548e+07  93.2%     -   32s
     0     0 1.0548e+07    0   15 1.5590e+08 1.0548e+07  93.2%     -   39s
     0     0 1.0548e+07    0   15 1.5590e+08 1.0548e+07  93.2%     -   51s
     0     0 1.0548e+07    0   15 1.5590e+08 1.0548e+07  93.2%     -   57s
     0     0 1.0548e+07    0   15 1.5590e+08 1.0548e+07  93.2%     -   63s
     0     0 1.0548e+07    0   15 1.5590e+08 1.0548e+07  93.2%     -   70s
     0     0 1.0548e+07    0   15 1.5590e+08 1.0548e+07  93.2%     -   76s
     0     0 1.0548e+07    0   15 1.5590e+08 1.0548e+07  93.2%     -   82s
     0     0 1.0548e+07    0   15 1.5590e+08 1.0548e+07  93.2%     -   88s
     0     0 1.0548e+07    0   15 1.5590e+08 1.0548e+07  93.2%     -   95s
     0     0 1.0548e+07    0   15 1.5590e+08 1.0548e+07  93.2%     -  101s
     0     0 1.0609e+07    0   65 1.5590e+08 1.0609e+07  93.2%     -  101s
     0     0 1.0609e+07    0   65 1.5590e+08 1.0609e+07  93.2%     -  107s
     0     0 1.0642e+07    0  310 1.5590e+08 1.0642e+07  93.2%     -  107s
     0     0 1.0642e+07    0  312 1.5590e+08 1.0642e+07  93.2%     -  108s
     0     0 1.0647e+07    0  182 1.5590e+08 1.0647e+07  93.2%     -  108s
     0     0 1.0647e+07    0  183 1.5590e+08 1.0647e+07  93.2%     -  108s
     0     0 1.0648e+07    0  220 1.5590e+08 1.0648e+07  93.2%     -  108s
     0     0 1.0648e+07    0  165 1.5590e+08 1.0648e+07  93.2%     -  109s
     0     0 1.0648e+07    0  165 1.5590e+08 1.0648e+07  93.2%     -  115s
     0     0 1.0648e+07    0  165 1.5590e+08 1.0648e+07  93.2%     -  122s
     0     0 1.0648e+07    0  165 1.5590e+08 1.0648e+07  93.2%     -  129s
     0     0 1.0648e+07    0  165 1.5590e+08 1.0648e+07  93.2%     -  135s
     0     0 1.0648e+07    0  165 1.5590e+08 1.0648e+07  93.2%     -  142s
     0     2 1.0650e+07    0  135 1.5590e+08 1.0650e+07  93.2%     -  143s
     3     6 1.0672e+07    2  180 1.5590e+08 1.0651e+07  93.2%   364  146s
     7     8 1.0675e+07    4  287 1.5590e+08 1.0653e+07  93.2%   393  150s
    59    59 1.0676e+07   30   10 1.5590e+08 1.0653e+07  93.2%  58.4  165s
   127   126 1.0676e+07   74   30 1.5590e+08 1.0653e+07  93.2%  34.7  173s
H  130    86                    1.067690e+07 1.0653e+07  0.22%  33.9  180s
*  193    30              27    1.065377e+07 1.0653e+07  0.01%  26.3  194s

Cutting planes:
  Cover: 28
  Clique: 879
  MIR: 18
  StrongCG: 1
  Zero half: 1
  Lazy constraints: 5146

Explored 204 nodes (11220 simplex iterations) in 194.40 seconds
Thread count was 4 (of 4 available processors)

Solution count 3: 1.06538e+07 1.06769e+07 1.55904e+08 
Pool objective bound 1.06532e+07

Optimal solution found (tolerance 1.00e-04)
Best objective 1.065377498128e+07, best bound 1.065316202012e+07, gap 0.0058%
